c instance by G2
c solution = 0010110
c Known solution cost is 295 
p cnf 7 30
w 72 4 61 31 34 38 55
6 -7 4 0
7 6 2 0
7 -2 -5 0
1 -7 -2 0
-5 -1 -6 0
5 6 -1 0
-7 2 -5 0
-1 3 2 0
6 5 7 0
-1 -2 -4 0
3 2 -4 0
-4 1 -6 0
-3 5 -1 0
3 -4 -1 0
-2 -1 3 0
-3 6 7 0
5 3 -1 0
3 -1 -2 0
1 5 -4 0
-7 -2 1 0
-3 -2 -4 0
6 5 -2 0
-5 7 -4 0
2 1 6 0
-2 -1 -7 0
5 2 7 0
-1 2 6 0
-3 -2 -1 0
1 3 4 0
-7 -2 6 0
